Translating instance to solver...

GLPSOL--GLPK LP/MIP Solver 5.0
Parameter(s) specified in the command line:
 --tmlim 28800 --mipgap 0.001 --write /tmp/tmpyl6jvi0v.glpk.raw --wglp /tmp/tmp08do7bqp.glpk.glp
 --cpxlp /tmp/tmpbub9suc2.pyomo.lp
Reading problem data from '/tmp/tmpbub9suc2.pyomo.lp'...
/tmp/tmpbub9suc2.pyomo.lp:295034: warning: lower bound of variable 'x2' redefined
/tmp/tmpbub9suc2.pyomo.lp:295034: warning: upper bound of variable 'x2' redefined
50636 rows, 25892 columns, 117101 non-zeros
25892 integer variables, 25860 of which are binary
320894 lines were read
Writing problem data to '/tmp/tmp08do7bqp.glpk.glp'...
228513 lines were written
GLPK Integer Optimizer 5.0
50636 rows, 25892 columns, 117101 non-zeros
25892 integer variables, 25860 of which are binary
Preprocessing...
190 hidden packing inequaliti(es) were detected
8110 hidden covering inequaliti(es) were detected
100 constraint coefficient(s) were reduced
29998 rows, 12201 columns, 75659 non-zeros
12201 integer variables, 12170 of which are binary
Scaling...
 A: min|aij| =  1.000e+00  max|aij| =  3.100e+01  ratio =  3.100e+01
GM: min|aij| =  4.238e-01  max|aij| =  2.360e+00  ratio =  5.568e+00
EQ: min|aij| =  2.226e-01  max|aij| =  1.000e+00  ratio =  4.492e+00
2N: min|aij| =  2.500e-01  max|aij| =  1.438e+00  ratio =  5.750e+00
Constructing initial basis...
Size of triangular part is 29998
Solving LP relaxation...
GLPK Simplex Optimizer 5.0
29998 rows, 12201 columns, 75659 non-zeros
      0: obj =   0.000000000e+00 inf =   8.512e+01 (105)
Perturbing LP to avoid stalling [200]...
   1075: obj =   6.354800499e+00 inf =   1.481e-10 (0) 3
Removing LP perturbation [2872]...
*  2872: obj =   1.198738522e+00 inf =   5.933e-16 (0) 9
OPTIMAL LP SOLUTION FOUND
Integer optimization begins...
Long-step dual simplex will be used
+  2872: mip =     not found yet >=              -inf        (1; 0)
+  4957: mip =     not found yet >=   1.204963818e+00        (20; 0)
+  6450: mip =     not found yet >=   1.219282000e+00        (43; 1)
+  7116: mip =     not found yet >=   1.219282000e+00        (74; 1)
+  8954: mip =     not found yet >=   1.219282000e+00        (101; 2)
+ 10390: mip =     not found yet >=   1.219282000e+00        (121; 2)
+ 10995: mip =     not found yet >=   1.219282000e+00        (142; 2)
+ 13350: mip =     not found yet >=   1.219282000e+00        (167; 3)
+ 15283: mip =     not found yet >=   1.219282000e+00        (182; 4)
+ 18176: mip =     not found yet >=   1.219282000e+00        (198; 5)
+ 20457: mip =     not found yet >=   1.230532000e+00        (220; 6)
+ 22330: mip =     not found yet >=   1.233210571e+00        (253; 7)
Time used: 60.2 secs.  Memory used: 49.9 Mb.
+ 22763: mip =     not found yet >=   1.233210571e+00        (270; 7)
+ 24784: mip =     not found yet >=   1.236782000e+00        (300; 8)
+ 25007: mip =     not found yet >=   1.236782000e+00        (314; 8)
+ 25357: mip =     not found yet >=   1.236782000e+00        (331; 8)
+ 25959: mip =     not found yet >=   1.236782000e+00        (354; 8)
+ 27135: mip =     not found yet >=   1.236782000e+00        (386; 9)
+ 29165: mip =     not found yet >=   1.236782000e+00        (409; 10)
+ 29902: mip =     not found yet >=   1.236782000e+00        (432; 10)
+ 31386: >>>>>   1.817673000e+00 >=   1.236782000e+00  32.0% (451; 11)
+ 33242: mip =   1.817673000e+00 >=   1.236782000e+00  32.0% (204; 535)
+ 35909: mip =   1.817673000e+00 >=   1.236782000e+00  32.0% (220; 535)
+ 38216: mip =   1.817673000e+00 >=   1.236782000e+00  32.0% (235; 536)
Time used: 120.2 secs.  Memory used: 56.6 Mb.
+ 41233: mip =   1.817673000e+00 >=   1.241782000e+00  31.7% (251; 538)
+ 42593: mip =   1.817673000e+00 >=   1.247076118e+00  31.4% (277; 540)
+ 44957: mip =   1.817673000e+00 >=   1.247076118e+00  31.4% (297; 541)
+ 47088: mip =   1.817673000e+00 >=   1.247076118e+00  31.4% (316; 544)
+ 49731: mip =   1.817673000e+00 >=   1.247076118e+00  31.4% (337; 547)
+ 52650: mip =   1.817673000e+00 >=   1.249282000e+00  31.3% (351; 548)
+ 55097: mip =   1.817673000e+00 >=   1.251255684e+00  31.2% (386; 549)
+ 57218: mip =   1.817673000e+00 >=   1.251255684e+00  31.2% (403; 550)
+ 57576: mip =   1.817673000e+00 >=   1.251255684e+00  31.2% (422; 550)
+ 60241: mip =   1.817673000e+00 >=   1.251255684e+00  31.2% (442; 552)
+ 62493: mip =   1.817673000e+00 >=   1.251255684e+00  31.2% (456; 554)
+ 63155: mip =   1.817673000e+00 >=   1.251255684e+00  31.2% (471; 555)
Time used: 180.5 secs.  Memory used: 72.9 Mb.
+ 66583: mip =   1.817673000e+00 >=   1.251255684e+00  31.2% (488; 557)
+ 70149: mip =   1.817673000e+00 >=   1.254440736e+00  31.0% (502; 558)
+ 72062: mip =   1.817673000e+00 >=   1.254639143e+00  31.0% (523; 560)
+ 73488: mip =   1.817673000e+00 >=   1.254639143e+00  31.0% (535; 561)
+ 75227: mip =   1.817673000e+00 >=   1.254639143e+00  31.0% (547; 562)
+ 77107: mip =   1.817673000e+00 >=   1.254639143e+00  31.0% (565; 563)
+ 78448: mip =   1.817673000e+00 >=   1.254639143e+00  31.0% (583; 564)
+ 80888: mip =   1.817673000e+00 >=   1.257248714e+00  30.8% (601; 566)
+ 83749: mip =   1.817673000e+00 >=   1.258657000e+00  30.8% (619; 569)
+ 86200: mip =   1.817673000e+00 >=   1.258657000e+00  30.8% (639; 571)
+ 88158: mip =   1.817673000e+00 >=   1.258657000e+00  30.8% (653; 572)
Time used: 240.5 secs.  Memory used: 87.1 Mb.
+ 88614: mip =   1.817673000e+00 >=   1.258657000e+00  30.8% (681; 572)
+ 90228: mip =   1.817673000e+00 >=   1.259535268e+00  30.7% (692; 573)
+ 92213: mip =   1.817673000e+00 >=   1.261320938e+00  30.6% (710; 574)
+ 93829: mip =   1.817673000e+00 >=   1.261782000e+00  30.6% (734; 575)
+ 95205: mip =   1.817673000e+00 >=   1.261782000e+00  30.6% (752; 577)
+ 97772: mip =   1.817673000e+00 >=   1.261782000e+00  30.6% (767; 578)
+100037: mip =   1.817673000e+00 >=   1.261782000e+00  30.6% (782; 579)
+102313: mip =   1.817673000e+00 >=   1.263481144e+00  30.5% (794; 581)
+104244: mip =   1.817673000e+00 >=   1.263523174e+00  30.5% (824; 583)
+107164: mip =   1.817673000e+00 >=   1.264282000e+00  30.4% (835; 585)
+109840: mip =   1.817673000e+00 >=   1.264282000e+00  30.4% (853; 586)
+111989: mip =   1.817673000e+00 >=   1.265113011e+00  30.4% (864; 588)
Time used: 300.5 secs.  Memory used: 101.1 Mb.
+113594: mip =   1.817673000e+00 >=   1.265151799e+00  30.4% (883; 589)
+115383: mip =   1.817673000e+00 >=   1.270371000e+00  30.1% (901; 591)
+117034: mip =   1.817673000e+00 >=   1.271782000e+00  30.0% (929; 593)
+117480: mip =   1.817673000e+00 >=   1.271782000e+00  30.0% (947; 594)
+120325: mip =   1.817673000e+00 >=   1.271782000e+00  30.0% (963; 596)
+122995: mip =   1.817673000e+00 >=   1.271782000e+00  30.0% (980; 596)
+126010: mip =   1.817673000e+00 >=   1.271782000e+00  30.0% (998; 598)
+128764: mip =   1.817673000e+00 >=   1.271782000e+00  30.0% (1013; 602)
+131037: mip =   1.817673000e+00 >=   1.271782000e+00  30.0% (1027; 603)
+132666: mip =   1.817673000e+00 >=   1.271782000e+00  30.0% (1038; 604)
+134476: mip =   1.817673000e+00 >=   1.271782000e+00  30.0% (1050; 606)
+136596: mip =   1.817673000e+00 >=   1.271863581e+00  30.0% (1067; 607)
Time used: 360.7 secs.  Memory used: 116.4 Mb.
+138493: mip =   1.817673000e+00 >=   1.273546706e+00  29.9% (1084; 609)
+139131: >>>>>   1.511782000e+00 >=   1.273971555e+00  15.7% (1091; 610)
+142226: mip =   1.511782000e+00 >=   1.276412118e+00  15.6% (518; 1772)
+144629: mip =   1.511782000e+00 >=   1.277871000e+00  15.5% (529; 1775)
+146324: mip =   1.511782000e+00 >=   1.277871000e+00  15.5% (540; 1776)
+146521: mip =   1.511782000e+00 >=   1.277871000e+00  15.5% (550; 1776)
+146754: mip =   1.511782000e+00 >=   1.277871000e+00  15.5% (558; 1776)
+147806: mip =   1.511782000e+00 >=   1.277871000e+00  15.5% (569; 1777)
+150005: mip =   1.511782000e+00 >=   1.277871000e+00  15.5% (580; 1779)
+151784: mip =   1.511782000e+00 >=   1.281118467e+00  15.3% (592; 1782)
+154600: mip =   1.511782000e+00 >=   1.283737500e+00  15.1% (605; 1785)
+157250: mip =   1.511782000e+00 >=   1.286782000e+00  14.9% (621; 1789)
Time used: 420.9 secs.  Memory used: 117.6 Mb.
+160398: mip =   1.511782000e+00 >=   1.286782000e+00  14.9% (635; 1793)
+164051: mip =   1.511782000e+00 >=   1.286782000e+00  14.9% (644; 1799)
+167054: mip =   1.511782000e+00 >=   1.286782000e+00  14.9% (658; 1801)
+168699: mip =   1.511782000e+00 >=   1.286782000e+00  14.9% (668; 1803)
+171708: mip =   1.511782000e+00 >=   1.286782000e+00  14.9% (679; 1807)
+173787: mip =   1.511782000e+00 >=   1.286782000e+00  14.9% (689; 1809)
+176740: mip =   1.511782000e+00 >=   1.286782000e+00  14.9% (697; 1812)
+177631: mip =   1.511782000e+00 >=   1.286782000e+00  14.9% (706; 1812)
+179650: mip =   1.511782000e+00 >=   1.286782000e+00  14.9% (710; 1814)
+183402: mip =   1.511782000e+00 >=   1.289826500e+00  14.7% (720; 1820)
+187139: mip =   1.511782000e+00 >=   1.289826500e+00  14.7% (731; 1823)
+189761: mip =   1.511782000e+00 >=   1.291835783e+00  14.5% (743; 1827)
Time used: 481.1 secs.  Memory used: 124.9 Mb.
+192261: mip =   1.511782000e+00 >=   1.292871000e+00  14.5% (757; 1832)
+195200: mip =   1.511782000e+00 >=   1.294040065e+00  14.4% (763; 1836)
+198097: mip =   1.511782000e+00 >=   1.295203252e+00  14.3% (778; 1841)
+198756: mip =   1.511782000e+00 >=   1.295471920e+00  14.3% (785; 1842)
+201682: mip =   1.511782000e+00 >=   1.296564609e+00  14.2% (788; 1848)
+205235: mip =   1.511782000e+00 >=   1.297924783e+00  14.1% (795; 1857)
+206957: mip =   1.511782000e+00 >=   1.298712778e+00  14.1% (804; 1860)
+211207: mip =   1.511782000e+00 >=   1.299697222e+00  14.0% (811; 1868)
+212726: mip =   1.511782000e+00 >=   1.300017294e+00  14.0% (826; 1872)
+215723: mip =   1.511782000e+00 >=   1.300129065e+00  14.0% (840; 1877)
+219317: mip =   1.511782000e+00 >=   1.301782000e+00  13.9% (847; 1883)
Time used: 541.2 secs.  Memory used: 141.0 Mb.
+222884: mip =   1.511782000e+00 >=   1.302227387e+00  13.9% (855; 1886)
+224925: mip =   1.511782000e+00 >=   1.302291645e+00  13.9% (862; 1889)
+227734: mip =   1.511782000e+00 >=   1.303745298e+00  13.8% (870; 1897)
+229945: mip =   1.511782000e+00 >=   1.304390720e+00  13.7% (874; 1902)
+231709: mip =   1.511782000e+00 >=   1.305337814e+00  13.7% (878; 1908)
+235773: mip =   1.511782000e+00 >=   1.307459486e+00  13.5% (883; 1915)
+237752: mip =   1.511782000e+00 >=   1.307854667e+00  13.5% (891; 1918)
+241945: mip =   1.511782000e+00 >=   1.309830218e+00  13.4% (897; 1928)
+245438: mip =   1.511782000e+00 >=   1.310937697e+00  13.3% (903; 1937)
+247482: mip =   1.511782000e+00 >=   1.311782000e+00  13.2% (911; 1947)
+251256: mip =   1.511782000e+00 >=   1.311782000e+00  13.2% (921; 1953)
+254715: mip =   1.511782000e+00 >=   1.312243063e+00  13.2% (932; 1956)
Time used: 601.2 secs.  Memory used: 155.4 Mb.
+258530: mip =   1.511782000e+00 >=   1.313745667e+00  13.1% (933; 1966)
+259962: mip =   1.511782000e+00 >=   1.313745667e+00  13.1% (950; 1970)
+262517: mip =   1.511782000e+00 >=   1.313745667e+00  13.1% (960; 1974)
+265357: mip =   1.511782000e+00 >=   1.313745667e+00  13.1% (973; 1979)
+267200: mip =   1.511782000e+00 >=   1.313811667e+00  13.1% (985; 1984)
+270067: mip =   1.511782000e+00 >=   1.314182500e+00  13.1% (996; 1987)
+270392: mip =   1.511782000e+00 >=   1.314182500e+00  13.1% (1006; 1987)
+271756: mip =   1.511782000e+00 >=   1.315016509e+00  13.0% (1011; 1992)
+274213: mip =   1.511782000e+00 >=   1.316054960e+00  12.9% (1018; 1997)
+276172: mip =   1.511782000e+00 >=   1.316417512e+00  12.9% (1029; 2000)
+280111: mip =   1.511782000e+00 >=   1.317871000e+00  12.8% (1028; 2015)
Time used: 661.2 secs.  Memory used: 166.1 Mb.
+283287: mip =   1.511782000e+00 >=   1.318402092e+00  12.8% (1041; 2019)
+285927: mip =   1.511782000e+00 >=   1.318924857e+00  12.8% (1051; 2026)
+289307: mip =   1.511782000e+00 >=   1.319093609e+00  12.7% (1064; 2029)
+289727: mip =   1.511782000e+00 >=   1.319174699e+00  12.7% (1066; 2030)
+292763: mip =   1.511782000e+00 >=   1.319834667e+00  12.7% (1070; 2038)
+295653: mip =   1.511782000e+00 >=   1.320569982e+00  12.6% (1078; 2048)
+299230: mip =   1.511782000e+00 >=   1.321534429e+00  12.6% (1086; 2058)
+300721: mip =   1.511782000e+00 >=   1.321851437e+00  12.6% (1100; 2060)
+302514: mip =   1.511782000e+00 >=   1.321864333e+00  12.6% (1114; 2062)
+305226: mip =   1.511782000e+00 >=   1.321935941e+00  12.6% (1127; 2066)
+307787: mip =   1.511782000e+00 >=   1.322506042e+00  12.5% (1132; 2072)
+310777: mip =   1.511782000e+00 >=   1.324282000e+00  12.4% (1139; 2080)
Time used: 721.3 secs.  Memory used: 174.9 Mb.
+313126: mip =   1.511782000e+00 >=   1.325013857e+00  12.4% (1155; 2084)
+316691: mip =   1.511782000e+00 >=   1.325957111e+00  12.3% (1161; 2093)
+320818: mip =   1.511782000e+00 >=   1.326487882e+00  12.3% (1165; 2101)
+322690: mip =   1.511782000e+00 >=   1.326487882e+00  12.3% (1174; 2106)
+325651: mip =   1.511782000e+00 >=   1.326487882e+00  12.3% (1183; 2111)
+327029: mip =   1.511782000e+00 >=   1.327241931e+00  12.2% (1195; 2113)
+329582: mip =   1.511782000e+00 >=   1.327773603e+00  12.2% (1207; 2117)
+333137: mip =   1.511782000e+00 >=   1.328573962e+00  12.1% (1213; 2127)
+336069: mip =   1.511782000e+00 >=   1.329712312e+00  12.0% (1216; 2137)
+337867: mip =   1.511782000e+00 >=   1.329796475e+00  12.0% (1228; 2139)
+340770: mip =   1.511782000e+00 >=   1.330371000e+00  12.0% (1239; 2145)
Time used: 781.3 secs.  Memory used: 187.4 Mb.
+343062: mip =   1.511782000e+00 >=   1.331292450e+00  11.9% (1249; 2152)
+346009: mip =   1.511782000e+00 >=   1.331782000e+00  11.9% (1252; 2160)
+349038: mip =   1.511782000e+00 >=   1.331807952e+00  11.9% (1262; 2166)
+351549: mip =   1.511782000e+00 >=   1.332703278e+00  11.8% (1267; 2178)
+353259: mip =   1.511782000e+00 >=   1.333922917e+00  11.8% (1279; 2184)
+355529: mip =   1.511782000e+00 >=   1.335361430e+00  11.7% (1287; 2190)
+357898: mip =   1.511782000e+00 >=   1.335887071e+00  11.6% (1298; 2194)
+360586: mip =   1.511782000e+00 >=   1.336782000e+00  11.6% (1305; 2204)
+362167: mip =   1.511782000e+00 >=   1.336971496e+00  11.6% (1316; 2206)
+364565: mip =   1.511782000e+00 >=   1.337871000e+00  11.5% (1324; 2213)
+366624: mip =   1.511782000e+00 >=   1.339149944e+00  11.4% (1329; 2222)
+370141: mip =   1.511782000e+00 >=   1.340971700e+00  11.3% (1330; 2236)
Time used: 841.4 secs.  Memory used: 196.9 Mb.
+372629: mip =   1.511782000e+00 >=   1.341766786e+00  11.2% (1329; 2247)
+373440: mip =   1.511782000e+00 >=   1.342218000e+00  11.2% (1336; 2249)
+373827: mip =   1.511782000e+00 >=   1.342218000e+00  11.2% (1347; 2249)
+374855: mip =   1.511782000e+00 >=   1.342218000e+00  11.2% (1356; 2249)
+378096: mip =   1.511782000e+00 >=   1.343032000e+00  11.2% (1356; 2262)
+380783: mip =   1.511782000e+00 >=   1.344304483e+00  11.1% (1361; 2271)
+381630: mip =   1.511782000e+00 >=   1.344767231e+00  11.0% (1371; 2274)
+383295: mip =   1.511782000e+00 >=   1.345293792e+00  11.0% (1377; 2278)
+386048: mip =   1.511782000e+00 >=   1.346149520e+00  11.0% (1380; 2286)
+388092: mip =   1.511782000e+00 >=   1.346837625e+00  10.9% (1387; 2293)
+392641: mip =   1.511782000e+00 >=   1.349075080e+00  10.8% (1385; 2307)
Time used: 901.6 secs.  Memory used: 203.9 Mb.
+394288: mip =   1.511782000e+00 >=   1.349703000e+00  10.7% (1397; 2313)
+395727: mip =   1.511782000e+00 >=   1.350441538e+00  10.7% (1406; 2315)
+398350: mip =   1.511782000e+00 >=   1.351067714e+00  10.6% (1412; 2325)
+400970: mip =   1.511782000e+00 >=   1.351067714e+00  10.6% (1426; 2330)
+403139: mip =   1.511782000e+00 >=   1.351067714e+00  10.6% (1437; 2336)
+406514: mip =   1.511782000e+00 >=   1.351366601e+00  10.6% (1446; 2344)
+408174: mip =   1.511782000e+00 >=   1.352019635e+00  10.6% (1452; 2349)
+410550: mip =   1.511782000e+00 >=   1.352509308e+00  10.5% (1463; 2356)
+412667: mip =   1.511782000e+00 >=   1.352509308e+00  10.5% (1476; 2362)
+414919: mip =   1.511782000e+00 >=   1.352509308e+00  10.5% (1485; 2363)
+417217: mip =   1.511782000e+00 >=   1.352535444e+00  10.5% (1502; 2366)
+419138: mip =   1.511782000e+00 >=   1.352958471e+00  10.5% (1504; 2371)
Time used: 961.7 secs.  Memory used: 215.3 Mb.
+420826: mip =   1.511782000e+00 >=   1.352958471e+00  10.5% (1509; 2376)
+422865: mip =   1.511782000e+00 >=   1.352958471e+00  10.5% (1522; 2378)
+424740: mip =   1.511782000e+00 >=   1.353155176e+00  10.5% (1536; 2382)
+427085: mip =   1.511782000e+00 >=   1.353674893e+00  10.5% (1535; 2393)
+430002: mip =   1.511782000e+00 >=   1.354564448e+00  10.4% (1540; 2404)
+433262: mip =   1.511782000e+00 >=   1.355260261e+00  10.4% (1543; 2415)
+436571: mip =   1.511782000e+00 >=   1.355739611e+00  10.3% (1549; 2425)
+438771: mip =   1.511782000e+00 >=   1.356104514e+00  10.3% (1561; 2430)
+440907: mip =   1.511782000e+00 >=   1.356776601e+00  10.3% (1561; 2437)
+443340: mip =   1.511782000e+00 >=   1.357207120e+00  10.2% (1569; 2444)
+445824: mip =   1.511782000e+00 >=   1.357722667e+00  10.2% (1575; 2451)
+448950: mip =   1.511782000e+00 >=   1.358836500e+00  10.1% (1574; 2462)
Time used: 1021.9 secs.  Memory used: 224.1 Mb.
+450526: mip =   1.511782000e+00 >=   1.358973389e+00  10.1% (1577; 2466)
+450785: mip =   1.511782000e+00 >=   1.358973389e+00  10.1% (1580; 2466)
+452410: mip =   1.511782000e+00 >=   1.359288659e+00  10.1% (1588; 2468)
+455392: mip =   1.511782000e+00 >=   1.359593115e+00  10.1% (1597; 2474)
+456501: mip =   1.511782000e+00 >=   1.360027405e+00  10.0% (1608; 2477)
+458855: mip =   1.511782000e+00 >=   1.360629652e+00  10.0% (1615; 2486)
+463429: mip =   1.511782000e+00 >=   1.361782000e+00   9.9% (1608; 2504)
+467141: mip =   1.511782000e+00 >=   1.361782000e+00   9.9% (1618; 2511)
+468583: mip =   1.511782000e+00 >=   1.361782000e+00   9.9% (1631; 2512)
+469520: mip =   1.511782000e+00 >=   1.361782000e+00   9.9% (1643; 2514)
+472360: mip =   1.511782000e+00 >=   1.361782000e+00   9.9% (1655; 2517)
Time used: 1081.9 secs.  Memory used: 231.9 Mb.
+474818: mip =   1.511782000e+00 >=   1.362510179e+00   9.9% (1663; 2525)
+477329: mip =   1.511782000e+00 >=   1.363677912e+00   9.8% (1668; 2538)
+480619: mip =   1.511782000e+00 >=   1.364752320e+00   9.7% (1668; 2550)
+482370: mip =   1.511782000e+00 >=   1.365271500e+00   9.7% (1674; 2559)
+485964: mip =   1.511782000e+00 >=   1.365841333e+00   9.7% (1682; 2569)
+488419: mip =   1.511782000e+00 >=   1.367673000e+00   9.5% (1683; 2581)
+490710: mip =   1.511782000e+00 >=   1.367673000e+00   9.5% (1695; 2585)
+493399: mip =   1.511782000e+00 >=   1.367725070e+00   9.5% (1703; 2591)
+495633: mip =   1.511782000e+00 >=   1.368497241e+00   9.5% (1706; 2601)
+495772: mip =   1.511782000e+00 >=   1.368497241e+00   9.5% (1709; 2601)
+497301: mip =   1.511782000e+00 >=   1.368930814e+00   9.4% (1714; 2605)
+497957: mip =   1.511782000e+00 >=   1.369343750e+00   9.4% (1723; 2610)
Time used: 1141.9 secs.  Memory used: 238.5 Mb.
+501514: mip =   1.511782000e+00 >=   1.369702667e+00   9.4% (1731; 2618)
+503723: mip =   1.511782000e+00 >=   1.370027172e+00   9.4% (1740; 2628)
+506863: mip =   1.511782000e+00 >=   1.371157000e+00   9.3% (1742; 2639)
+508868: mip =   1.511782000e+00 >=   1.371157000e+00   9.3% (1744; 2645)
+511049: mip =   1.511782000e+00 >=   1.372218296e+00   9.2% (1748; 2658)
+513905: mip =   1.511782000e+00 >=   1.373297598e+00   9.2% (1739; 2673)
+518384: mip =   1.511782000e+00 >=   1.374689182e+00   9.1% (1734; 2695)
+520108: mip =   1.511782000e+00 >=   1.375252986e+00   9.0% (1734; 2700)
+522721: mip =   1.511782000e+00 >=   1.376223763e+00   9.0% (1738; 2711)
+523661: mip =   1.511782000e+00 >=   1.376613588e+00   8.9% (1742; 2714)
+525322: mip =   1.511782000e+00 >=   1.376736583e+00   8.9% (1747; 2718)
+527743: mip =   1.511782000e+00 >=   1.376837851e+00   8.9% (1759; 2722)
Time used: 1201.9 secs.  Memory used: 246.5 Mb.
+529089: mip =   1.511782000e+00 >=   1.377356635e+00   8.9% (1765; 2726)
+530977: mip =   1.511782000e+00 >=   1.378235462e+00   8.8% (1772; 2733)
+534121: mip =   1.511782000e+00 >=   1.379356126e+00   8.8% (1772; 2752)
+537823: mip =   1.511782000e+00 >=   1.380301900e+00   8.7% (1768; 2763)
+537938: mip =   1.511782000e+00 >=   1.380301900e+00   8.7% (1775; 2763)
+538292: mip =   1.511782000e+00 >=   1.380301900e+00   8.7% (1779; 2763)
+540353: mip =   1.511782000e+00 >=   1.380594000e+00   8.7% (1786; 2776)
+541434: mip =   1.511782000e+00 >=   1.380693000e+00   8.7% (1799; 2777)
+544140: mip =   1.511782000e+00 >=   1.382395698e+00   8.6% (1794; 2795)
+546583: mip =   1.511782000e+00 >=   1.383210571e+00   8.5% (1791; 2813)
+550075: mip =   1.511782000e+00 >=   1.383685111e+00   8.5% (1795; 2822)
Time used: 1261.9 secs.  Memory used: 253.7 Mb.
+552400: mip =   1.511782000e+00 >=   1.384208754e+00   8.4% (1804; 2827)
+554639: mip =   1.511782000e+00 >=   1.384608087e+00   8.4% (1807; 2831)
+556068: mip =   1.511782000e+00 >=   1.384882643e+00   8.4% (1811; 2839)
+558601: mip =   1.511782000e+00 >=   1.385135478e+00   8.4% (1816; 2846)
+558754: mip =   1.511782000e+00 >=   1.385135478e+00   8.4% (1824; 2846)
+559405: mip =   1.511782000e+00 >=   1.385135478e+00   8.4% (1834; 2846)
+563926: mip =   1.511782000e+00 >=   1.386571223e+00   8.3% (1828; 2864)
+566726: mip =   1.511782000e+00 >=   1.387475000e+00   8.2% (1824; 2886)
+568074: mip =   1.511782000e+00 >=   1.388073132e+00   8.2% (1835; 2891)
+571375: mip =   1.511782000e+00 >=   1.389734500e+00   8.1% (1830; 2912)
+573214: mip =   1.511782000e+00 >=   1.390047278e+00   8.1% (1836; 2919)
+575590: mip =   1.511782000e+00 >=   1.390870547e+00   8.0% (1835; 2931)
Time used: 1322.2 secs.  Memory used: 257.6 Mb.
+577829: mip =   1.511782000e+00 >=   1.391449996e+00   8.0% (1837; 2939)
+580781: mip =   1.511782000e+00 >=   1.391782000e+00   7.9% (1848; 2947)
+584519: mip =   1.511782000e+00 >=   1.392501275e+00   7.9% (1846; 2964)
+586337: mip =   1.511782000e+00 >=   1.392664353e+00   7.9% (1857; 2967)
+588547: mip =   1.511782000e+00 >=   1.393710183e+00   7.8% (1860; 2985)
+589945: mip =   1.511782000e+00 >=   1.394497924e+00   7.8% (1861; 2998)
+593781: mip =   1.511782000e+00 >=   1.395899423e+00   7.7% (1846; 3025)
+594594: mip =   1.511782000e+00 >=   1.395932615e+00   7.7% (1853; 3027)
+596614: mip =   1.511782000e+00 >=   1.396738760e+00   7.6% (1855; 3035)
+597613: mip =   1.511782000e+00 >=   1.397072875e+00   7.6% (1856; 3039)
+601967: mip =   1.511782000e+00 >=   1.398255897e+00   7.5% (1852; 3060)
Time used: 1382.2 secs.  Memory used: 264.5 Mb.
+605077: mip =   1.511782000e+00 >=   1.399282000e+00   7.4% (1856; 3071)
+609389: mip =   1.511782000e+00 >=   1.400353429e+00   7.4% (1843; 3100)
+612195: mip =   1.511782000e+00 >=   1.401660889e+00   7.3% (1837; 3125)
+614289: mip =   1.511782000e+00 >=   1.401660889e+00   7.3% (1841; 3127)
+615940: mip =   1.511782000e+00 >=   1.401846846e+00   7.3% (1841; 3132)
+617315: mip =   1.511782000e+00 >=   1.402337444e+00   7.2% (1840; 3143)
+619020: mip =   1.511782000e+00 >=   1.403036000e+00   7.2% (1841; 3152)
+621880: mip =   1.511782000e+00 >=   1.403822556e+00   7.1% (1845; 3163)
+625377: mip =   1.511782000e+00 >=   1.404927020e+00   7.1% (1842; 3178)
+627133: mip =   1.511782000e+00 >=   1.405645536e+00   7.0% (1850; 3195)
+629535: mip =   1.511782000e+00 >=   1.406528114e+00   7.0% (1851; 3207)
+632008: mip =   1.511782000e+00 >=   1.407749889e+00   6.9% (1840; 3231)
Time used: 1442.2 secs.  Memory used: 269.9 Mb.
+634681: mip =   1.511782000e+00 >=   1.408485750e+00   6.8% (1835; 3247)
+637142: mip =   1.511782000e+00 >=   1.409278381e+00   6.8% (1840; 3260)
+640319: mip =   1.511782000e+00 >=   1.410634013e+00   6.7% (1830; 3284)
+642955: mip =   1.511782000e+00 >=   1.411782000e+00   6.6% (1824; 3304)
+646473: mip =   1.511782000e+00 >=   1.413080682e+00   6.5% (1819; 3327)
+650112: mip =   1.511782000e+00 >=   1.414586247e+00   6.4% (1814; 3346)
+651666: mip =   1.511782000e+00 >=   1.414797911e+00   6.4% (1819; 3353)
+654200: mip =   1.511782000e+00 >=   1.416440750e+00   6.3% (1820; 3365)
+656604: mip =   1.511782000e+00 >=   1.417673000e+00   6.2% (1809; 3388)
+660181: mip =   1.511782000e+00 >=   1.418654833e+00   6.2% (1803; 3411)
+661442: mip =   1.511782000e+00 >=   1.418654833e+00   6.2% (1810; 3416)
+663554: mip =   1.511782000e+00 >=   1.418788353e+00   6.2% (1819; 3422)
Time used: 1502.3 secs.  Memory used: 273.2 Mb.
+665545: mip =   1.511782000e+00 >=   1.419391237e+00   6.1% (1822; 3435)
+668819: mip =   1.511782000e+00 >=   1.420177083e+00   6.1% (1814; 3453)
+671869: mip =   1.511782000e+00 >=   1.420707536e+00   6.0% (1811; 3483)
+676001: mip =   1.511782000e+00 >=   1.421782000e+00   6.0% (1793; 3517)
+679013: mip =   1.511782000e+00 >=   1.422405371e+00   5.9% (1788; 3538)
+680825: mip =   1.511782000e+00 >=   1.422790000e+00   5.9% (1784; 3549)
+682106: mip =   1.511782000e+00 >=   1.423022000e+00   5.9% (1794; 3554)
+684231: mip =   1.511782000e+00 >=   1.423518067e+00   5.8% (1797; 3563)
+686773: mip =   1.511782000e+00 >=   1.423914296e+00   5.8% (1793; 3574)
+689923: mip =   1.511782000e+00 >=   1.425206706e+00   5.7% (1777; 3602)
+692981: mip =   1.511782000e+00 >=   1.426952846e+00   5.6% (1761; 3636)
Time used: 1562.6 secs.  Memory used: 275.5 Mb.
+694218: mip =   1.511782000e+00 >=   1.427374635e+00   5.6% (1761; 3642)
+696551: mip =   1.511782000e+00 >=   1.427913724e+00   5.5% (1755; 3662)
+699624: mip =   1.511782000e+00 >=   1.429247654e+00   5.5% (1741; 3689)
+702709: mip =   1.511782000e+00 >=   1.430219000e+00   5.4% (1732; 3710)
+704129: mip =   1.511782000e+00 >=   1.430819071e+00   5.4% (1735; 3720)
+705198: mip =   1.511782000e+00 >=   1.431405600e+00   5.3% (1748; 3725)
+707169: mip =   1.511782000e+00 >=   1.432116250e+00   5.3% (1738; 3745)
+709531: mip =   1.511782000e+00 >=   1.432425701e+00   5.2% (1743; 3760)
+711267: mip =   1.511782000e+00 >=   1.433298000e+00   5.2% (1738; 3780)
+713590: mip =   1.511782000e+00 >=   1.434067484e+00   5.1% (1731; 3800)
+716725: mip =   1.511782000e+00 >=   1.435224094e+00   5.1% (1714; 3829)
+718727: mip =   1.511782000e+00 >=   1.435786349e+00   5.0% (1706; 3853)
Time used: 1622.8 secs.  Memory used: 279.2 Mb.
+721767: mip =   1.511782000e+00 >=   1.437489146e+00   4.9% (1687; 3886)
+724603: mip =   1.511782000e+00 >=   1.438650750e+00   4.8% (1675; 3913)
+727131: mip =   1.511782000e+00 >=   1.438943205e+00   4.8% (1669; 3941)
+731437: mip =   1.511782000e+00 >=   1.439738809e+00   4.8% (1650; 3987)
+733127: mip =   1.511782000e+00 >=   1.440949485e+00   4.7% (1649; 4008)
+734035: mip =   1.511782000e+00 >=   1.441020439e+00   4.7% (1662; 4009)
+739062: mip =   1.511782000e+00 >=   1.443922520e+00   4.5% (1606; 4110)
+740797: mip =   1.511782000e+00 >=   1.444145750e+00   4.5% (1600; 4135)
+743839: mip =   1.511782000e+00 >=   1.445212429e+00   4.4% (1585; 4165)
+745875: mip =   1.511782000e+00 >=   1.445857742e+00   4.4% (1577; 4193)
+747391: mip =   1.511782000e+00 >=   1.446277909e+00   4.3% (1580; 4210)
+749859: mip =   1.511782000e+00 >=   1.446895647e+00   4.3% (1573; 4226)
Time used: 1682.9 secs.  Memory used: 281.2 Mb.
+751092: mip =   1.511782000e+00 >=   1.447227517e+00   4.3% (1570; 4233)
+752790: mip =   1.511782000e+00 >=   1.447847500e+00   4.2% (1558; 4256)
+755630: mip =   1.511782000e+00 >=   1.449473625e+00   4.1% (1535; 4302)
+757406: mip =   1.511782000e+00 >=   1.449599182e+00   4.1% (1547; 4310)
+761105: mip =   1.511782000e+00 >=   1.450234750e+00   4.1% (1530; 4353)
+764756: mip =   1.511782000e+00 >=   1.451585731e+00   4.0% (1504; 4442)
+768162: mip =   1.511782000e+00 >=   1.453010989e+00   3.9% (1468; 4511)
+770509: mip =   1.511782000e+00 >=   1.453585286e+00   3.8% (1459; 4532)
+773030: mip =   1.511782000e+00 >=   1.455247000e+00   3.7% (1427; 4604)
+774308: mip =   1.511782000e+00 >=   1.456133727e+00   3.7% (1416; 4632)
+775736: mip =   1.511782000e+00 >=   1.456355462e+00   3.7% (1409; 4648)
Time used: 1743.4 secs.  Memory used: 281.2 Mb.
+776283: mip =   1.511782000e+00 >=   1.456562029e+00   3.7% (1415; 4650)
+776705: mip =   1.511782000e+00 >=   1.456562029e+00   3.7% (1423; 4650)
+778945: mip =   1.511782000e+00 >=   1.458187905e+00   3.5% (1412; 4684)
+780993: mip =   1.511782000e+00 >=   1.459130143e+00   3.5% (1403; 4717)
+784805: mip =   1.511782000e+00 >=   1.461247281e+00   3.3% (1365; 4806)
+786832: mip =   1.511782000e+00 >=   1.461883136e+00   3.3% (1349; 4842)
+790167: mip =   1.511782000e+00 >=   1.463270437e+00   3.2% (1316; 4907)
+793497: mip =   1.511782000e+00 >=   1.465957370e+00   3.0% (1257; 5009)
+796609: mip =   1.511782000e+00 >=   1.467554235e+00   2.9% (1228; 5078)
+799521: mip =   1.511782000e+00 >=   1.469530466e+00   2.8% (1185; 5197)
+802928: mip =   1.511782000e+00 >=   1.471186000e+00   2.7% (1121; 5332)
+806927: mip =   1.511782000e+00 >=   1.473213457e+00   2.6% (1056; 5453)
Time used: 1803.5 secs.  Memory used: 281.2 Mb.
+807005: mip =   1.511782000e+00 >=   1.473213457e+00   2.6% (1058; 5453)
+809455: mip =   1.511782000e+00 >=   1.474134167e+00   2.5% (1024; 5558)
+810487: mip =   1.511782000e+00 >=   1.474372778e+00   2.5% (1018; 5579)
+811293: mip =   1.511782000e+00 >=   1.474411319e+00   2.5% (1020; 5581)
+813702: mip =   1.511782000e+00 >=   1.476238358e+00   2.4% (982; 5665)
+815280: mip =   1.511782000e+00 >=   1.476767583e+00   2.3% (964; 5717)
+817891: mip =   1.511782000e+00 >=   1.478726776e+00   2.2% (924; 5813)
+819474: mip =   1.511782000e+00 >=   1.479775948e+00   2.1% (896; 5873)
+822770: mip =   1.511782000e+00 >=   1.482181357e+00   2.0% (850; 6012)
+825781: mip =   1.511782000e+00 >=   1.484120413e+00   1.8% (793; 6142)
+828473: mip =   1.511782000e+00 >=   1.487673000e+00   1.6% (698; 6448)
+832198: mip =   1.511782000e+00 >=   1.491607235e+00   1.3% (585; 6752)
Time used: 1863.6 secs.  Memory used: 281.2 Mb.
+836101: mip =   1.511782000e+00 >=   1.496095375e+00   1.0% (453; 7211)
+839420: mip =   1.511782000e+00 >=   1.500928615e+00   0.7% (309; 7773)
+842123: mip =   1.511782000e+00 >=   1.509971087e+00   0.1% (53; 9161)
+842165: mip =   1.511782000e+00 >=   1.510274053e+00 < 0.1% (46; 9219)
RELATIVE MIP GAP TOLERANCE REACHED; SEARCH TERMINATED
Time used:   1878.2 secs
Memory used: 289.0 Mb (303052649 bytes)
Writing MIP solution to '/tmp/tmpyl6jvi0v.glpk.raw'...
76537 lines were written

Results:

E = 1.511782 mA
C = 68.0 points
C ~= 27.200000000000003 km^2

Minimum Epsilon for this instance = 9
Maximum Epsilon for this instance = 98
Current Epsilon = 63

Instance Maximum Epsilon Preprocessing Time: 0.003406524658203125 s

Time in solver (for this epsilon): 1878.3561534881592 s
Elapsed time (for this epsilon): 1879.9348421096802 s


Total elapsed time since execution of first epsilon: 58158.635947942734 s


Updated solution vectors:
sol_E = [0.611782,1.061782,1.061782,1.061782,1.061782,1.511782,1.511782]
sol_C = [12.0,33.0,27.0,47.0,47.0,54.0,68.0]
sol_eps = [9,18,27,36,45,54,63]
